(set-logic HORN)
(declare-fun state (Int Int Int (Array Int Int) Int (Array Int Int) Int Int Int Int Int (Array Int Int) (Array Int Int) (Array Int Int) (Array Int Int) Int Int Int Int (Array Int Int) (Array Int Int) (Array Int Int) Bool Bool Bool Int Int Int) Bool)
(assert (forall ((|main@%tmp8.i_0_11| Int) (|.y.26| Int) (|.y.27| Int) (|main@%shadow.mem1.0_0_11| (Array Int Int)) (|main@%tmp18.i_0_11| Int) (|main@%shadow.mem5.0_0_3| (Array Int Int)) (|main@%x.0.i_0_1| Int) (|main@%tmp2.i_0_11| Int) (|.y.28| Int) (|.y.29| Int) (|.y.30| Int) (|.y.31| (Array Int Int)) (|.y.32| (Array Int Int)) (|.y.33| (Array Int Int)) (|.y.34| (Array Int Int)) (|.y.35| Int) (|.y.36| Int) (|.y.37| Int) (|.y.38| Int) (|.y.39| (Array Int Int)) (|.y.40| (Array Int Int)) (|.y.41| (Array Int Int)) (|.loc.42| Bool) (|.loc.43| Bool) (|.loc.44| Bool) (|main@%tmp102.i_0_0| Int) (|main@%tmp24.i_0| Int) (|main@%tmp98.i_0_0| Int) (|.loc.67| Bool) (|.y.51| Int) (|.y.45| Int) (|.y.48| (Array Int Int)) (|.y.49| Int) (|.y.50| (Array Int Int)) (|.y.52| Int) (|.loc.68| Bool) (|.y.56| (Array Int Int)) (|.y.60| Int) (|.y.61| Int) (|.y.64| (Array Int Int)) (|.loc.69| Bool) (|.y.62| Int) (|.y.65| (Array Int Int)) (|.y.66| (Array Int Int)) (|.y.63| Int) (|.y.55| Int) (|.y.46| Int) (|.y.53| Int) (|.y.54| Int) (|.y.47| Int) (|.y.59| (Array Int Int)) (|.y.58| (Array Int Int)) (|.y.57| (Array Int Int)) (|.xtv.1| Int) (|.xtv.2| Int) (|.xtv.3| Int)) (=> (and (and (not .loc.42) (not .loc.43)) (not .loc.44)) (state |main@%tmp8.i_0_11| |.y.26| |.y.27| |main@%shadow.mem1.0_0_11| |main@%tmp18.i_0_11| |main@%shadow.mem5.0_0_3| |main@%x.0.i_0_1| |main@%tmp2.i_0_11| |.y.28| |.y.29| |.y.30| |.y.31| |.y.32| |.y.33| |.y.34| |.y.35| |.y.36| |.y.37| |.y.38| |.y.39| |.y.40| |.y.41| |.loc.42| |.loc.43| |.loc.44| |main@%tmp102.i_0_0| |main@%tmp24.i_0| |main@%tmp98.i_0_0|))))
(assert (forall ((|main@%tmp8.i_0_11| Int) (|.y.26| Int) (|.y.27| Int) (|main@%shadow.mem1.0_0_11| (Array Int Int)) (|main@%tmp18.i_0_11| Int) (|main@%shadow.mem5.0_0_3| (Array Int Int)) (|main@%x.0.i_0_1| Int) (|main@%tmp2.i_0_11| Int) (|.y.28| Int) (|.y.29| Int) (|.y.30| Int) (|.y.31| (Array Int Int)) (|.y.32| (Array Int Int)) (|.y.33| (Array Int Int)) (|.y.34| (Array Int Int)) (|.y.35| Int) (|.y.36| Int) (|.y.37| Int) (|.y.38| Int) (|.y.39| (Array Int Int)) (|.y.40| (Array Int Int)) (|.y.41| (Array Int Int)) (|.loc.42| Bool) (|.loc.43| Bool) (|.loc.44| Bool) (|main@%tmp102.i_0_0| Int) (|main@%tmp24.i_0| Int) (|main@%tmp98.i_0_0| Int) (|.loc.67| Bool) (|.y.51| Int) (|.y.45| Int) (|.y.48| (Array Int Int)) (|.y.49| Int) (|.y.50| (Array Int Int)) (|.y.52| Int) (|.loc.68| Bool) (|.y.56| (Array Int Int)) (|.y.60| Int) (|.y.61| Int) (|.y.64| (Array Int Int)) (|.loc.69| Bool) (|.y.62| Int) (|.y.65| (Array Int Int)) (|.y.66| (Array Int Int)) (|.y.63| Int) (|.y.55| Int) (|.y.46| Int) (|.y.53| Int) (|.y.54| Int) (|.y.47| Int) (|.y.59| (Array Int Int)) (|.y.58| (Array Int Int)) (|.y.57| (Array Int Int)) (|.xtv.1| Int) (|.xtv.2| Int) (|.xtv.3| Int)) (=> (and (state |main@%tmp8.i_0_11| |.y.26| |.y.27| |main@%shadow.mem1.0_0_11| |main@%tmp18.i_0_11| |main@%shadow.mem5.0_0_3| |main@%x.0.i_0_1| |main@%tmp2.i_0_11| |.y.28| |.y.29| |.y.30| |.y.31| |.y.32| |.y.33| |.y.34| |.y.35| |.y.36| |.y.37| |.y.38| |.y.39| |.y.40| |.y.41| |.loc.42| |.loc.43| |.loc.44| |main@%tmp102.i_0_0| |main@%tmp24.i_0| |main@%tmp98.i_0_0|) (let ((.def_38 (not .loc.42))) (let ((.def_39 (not .loc.43))) (let ((.def_41 (not .loc.44))) (let ((.def_45 (= (select main@%shadow.mem1.0_0_11 main@%tmp98.i_0_0) (select main@%shadow.mem5.0_0_3 main@%tmp102.i_0_0)))) (let ((.def_54 (<= main@%tmp8.i_0_11 0))) (let ((.def_57 (not (<= main@%tmp98.i_0_0 0)))) (let ((.def_70 (not (<= main@%tmp102.i_0_0 0)))) (let ((.def_71 (<= main@%tmp18.i_0_11 0))) (let ((.def_72 (or .def_70 .def_71))) (let ((.def_74 (not .def_71))) (let ((.def_75 (and (and (and (= (+ main@%tmp18.i_0_11 (+ main@%x.0.i_0_1 (* (- 1) main@%tmp102.i_0_0))) 0) (and (not .def_54) (and (or .def_54 .def_57) (and (not (<= main@%tmp2.i_0_11 main@%x.0.i_0_1)) (= (+ main@%tmp8.i_0_11 (+ main@%x.0.i_0_1 (* (- 1) main@%tmp98.i_0_0))) 0))))) .def_72) .def_74))) (let ((.def_81 (not .loc.67))) (let ((.def_85 (= .y.51 0))) (let ((.def_87 (<= .y.35 main@%x.0.i_0_1))) (let ((.def_90 (= main@%tmp8.i_0_11 .y.45))) (let ((.def_93 (= main@%shadow.mem1.0_0_11 .y.48))) (let ((.def_96 (= main@%tmp2.i_0_11 .y.49))) (let ((.def_99 (= .y.31 .y.50))) (let ((.def_102 (= .y.35 .y.52))) (let ((.def_113 (= (+ main@%x.0.i_0_1 (* (- 1) .y.51)) (- 1)))) (let ((.def_115 (= main@%tmp18.i_0_11 .y.49))) (let ((.def_117 (= main@%shadow.mem5.0_0_3 .y.50))) (let ((.def_119 (= main@%tmp2.i_0_11 .y.52))) (let ((.def_127 (and .def_39 (and .def_38 .loc.67)))) (let ((.def_134 (not .loc.68))) (let ((.def_137 (<= .y.36 main@%x.0.i_0_1))) (let ((.def_140 (= .y.36 .y.60))) (let ((.def_144 (and .loc.42 .def_74))) (let ((.def_156 (= .y.56 (store .y.31 main@%tmp102.i_0_0 (select main@%shadow.mem5.0_0_3 main@%tmp98.i_0_0))))) (let ((.def_158 (<= main@%tmp2.i_0_11 0))) (let ((.def_159 (not .def_158))) (let ((.def_161 (or .def_70 .def_158))) (let ((.def_165 (= (+ main@%x.0.i_0_1 (+ main@%tmp2.i_0_11 (* (- 1) main@%tmp102.i_0_0))) 0))) (let ((.def_167 (or .def_57 .def_71))) (let ((.def_170 (= (+ main@%tmp18.i_0_11 (+ main@%x.0.i_0_1 (* (- 1) main@%tmp98.i_0_0))) 0))) (let ((.def_173 (= .y.35 .y.60))) (let ((.def_190 (<= .y.37 main@%x.0.i_0_1))) (let ((.def_193 (= .y.37 .y.61))) (let ((.def_196 (= .y.39 .y.64))) (let ((.def_220 (= .y.36 .y.61))) (let ((.def_241 (not .loc.69))) (let ((.def_244 (<= .y.38 main@%x.0.i_0_1))) (let ((.def_248 (= .y.40 .y.65))) (let ((.def_274 (= .y.37 .y.62))) (let ((.def_299 (<= .y.30 .y.27))) (let ((.def_390 (<= .y.26 0))) (or (or (or (or (or (or (and (or (or (and .loc.44 (or (or (and (or (or (and (and .def_38 (and .loc.43 (and (not .def_45) .def_75))) .loc.67) (and (and (and (and (and (and (and (and .def_39 (and .loc.42 .def_81)) .def_85) .def_87) .def_90) .def_93) .def_96) .def_99) .def_102)) (and (and (and (and (and .def_93 (and .def_90 (and .def_81 (and .def_38 (and .loc.43 (and .def_45 .def_75)))))) .def_113) .def_115) .def_117) .def_119)) .loc.68) (and (and (and (= .y.39 .y.56) (and (and .def_102 (and .def_99 (and .def_96 (and .def_93 (and .def_90 (and .def_85 .def_127)))))) .def_134)) .def_137) .def_140)) (and (and (not .def_87) (and (and (and (and (and (and (and .def_134 (and .def_119 (and .def_117 (and .def_115 (and .def_113 (and .def_93 (and .def_90 (and .def_39 (and .loc.67 .def_144))))))))) .def_156) .def_159) .def_161) .def_165) .def_167) .def_170)) .def_173))) (and (and (and (and (= .y.40 .y.56) (and .def_41 (and .def_140 (and .def_134 (and .def_102 (and .def_99 (and .def_96 (and .def_93 (and .def_90 (and .def_85 (and .def_81 (and .loc.42 .loc.43)))))))))))) .def_190) .def_193) .def_196)) (and (and (not .def_137) (and .def_196 (and .def_173 (and .def_170 (and .def_167 (and .def_165 (and .def_161 (and .def_159 (and .def_156 (and .def_134 (and .def_119 (and .def_117 (and .def_115 (and .def_113 (and .def_93 (and .def_90 (and .def_39 (and .def_81 (and .def_38 (and .loc.44 .def_74)))))))))))))))))))) .def_220)) .loc.69) (and (and (= .y.38 .y.62) (and (and (= .y.41 .y.56) (and (and .def_196 (and .def_193 (and .def_41 (and .def_140 (and .def_102 (and .def_99 (and .def_96 (and .def_93 (and .def_90 (and .def_85 (and .loc.68 (and .loc.67 (and .loc.43 .def_38))))))))))))) .def_241)) .def_244)) .def_248)) (and (and (not .def_190) (and .def_248 (and .def_241 (and .def_220 (and .def_196 (and .def_41 (and .def_173 (and .def_170 (and .def_167 (and .def_165 (and .def_161 (and .def_159 (and .def_156 (and .def_119 (and .def_117 (and .def_115 (and .def_113 (and .def_93 (and .def_90 (and .loc.68 (and .loc.67 (and .loc.43 .def_144)))))))))))))))))))))) .def_274)) (and (= .y.33 .y.66) (and (= .y.32 .y.65) (and (= .y.31 .y.64) (and (= .y.30 .y.63) (and (= .y.29 .y.62) (and (= .y.28 .y.61) (and (= main@%tmp2.i_0_11 .y.60) (and (= main@%x.0.i_0_1 .y.52) (and (= .y.26 .y.45) (and (and (= .y.34 .y.56) (and .def_241 (and .def_41 (and .def_117 (and .def_115 (and .def_93 (and .def_85 (and .def_39 (and .def_81 (and .loc.42 .loc.68)))))))))) .def_299))))))))))) (and (= .y.41 .y.66) (and (= .y.38 .y.63) (and (not .def_244) (and .def_274 (and .def_248 (and .def_241 (and .def_220 (and .def_196 (and .def_41 (and .def_173 (and .def_170 (and .def_167 (and .def_165 (and .def_161 (and .def_159 (and .def_156 (and .def_119 (and .def_117 (and .def_115 (and .def_113 (and .def_93 (and .def_90 (and .def_81 (and .loc.68 (and .def_38 (and .loc.43 .def_74))))))))))))))))))))))))))) (and (not (<= .y.55 0)) (and (not (<= .y.46 0)) (and (not (<= .y.49 0)) (and (not (<= .y.51 0)) (and (not (<= .y.52 0)) (and (not (<= .y.53 0)) (and (not (<= .y.54 0)) (and (= .y.47 0) (and .def_241 (and .def_41 (and .def_134 (and .def_90 .def_127))))))))))))) (and (= .y.34 .y.59) (and (= .y.33 .y.58) (and (= .y.32 .y.57) (and (= .y.31 .y.56) (and (= .y.30 .y.55) (and (= .y.29 .y.54) (and (= .y.28 .y.53) (and (= main@%x.0.i_0_1 .y.51) (and (= .y.26 .y.46) (and (not .def_299) (and (= (+ .y.26 (+ .y.27 (* (- 1) main@%tmp98.i_0_0))) 0) (and (or .def_57 .def_390) (and (not .def_390) (and (= (+ .y.27 (+ main@%tmp18.i_0_11 (* (- 1) main@%tmp102.i_0_0))) 0) (and (= .y.48 (store main@%shadow.mem1.0_0_11 main@%tmp98.i_0_0 main@%tmp24.i_0)) (and (= .y.50 (store main@%shadow.mem5.0_0_3 main@%tmp102.i_0_0 main@%tmp24.i_0)) (and (= (+ .y.27 (* (- 1) .y.47)) (- 1)) (and .def_241 (and .def_41 (and .def_134 (and .def_119 (and .def_115 (and .def_90 (and .def_39 (and .loc.67 (and .loc.42 (and .def_72 .def_74))))))))))))))))))))))))))))))))))))))))))))))))))))))))))))))))))))))))))) (state |.y.45| |.y.46| |.y.47| |.y.48| |.y.49| |.y.50| |.y.51| |.y.52| |.y.53| |.y.54| |.y.55| |.y.56| |.y.57| |.y.58| |.y.59| |.y.60| |.y.61| |.y.62| |.y.63| |.y.64| |.y.65| |.y.66| |.loc.67| |.loc.68| |.loc.69| |.xtv.1| |.xtv.2| |.xtv.3|))))
(assert (forall ((|main@%tmp8.i_0_11| Int) (|.y.26| Int) (|.y.27| Int) (|main@%shadow.mem1.0_0_11| (Array Int Int)) (|main@%tmp18.i_0_11| Int) (|main@%shadow.mem5.0_0_3| (Array Int Int)) (|main@%x.0.i_0_1| Int) (|main@%tmp2.i_0_11| Int) (|.y.28| Int) (|.y.29| Int) (|.y.30| Int) (|.y.31| (Array Int Int)) (|.y.32| (Array Int Int)) (|.y.33| (Array Int Int)) (|.y.34| (Array Int Int)) (|.y.35| Int) (|.y.36| Int) (|.y.37| Int) (|.y.38| Int) (|.y.39| (Array Int Int)) (|.y.40| (Array Int Int)) (|.y.41| (Array Int Int)) (|.loc.42| Bool) (|.loc.43| Bool) (|.loc.44| Bool) (|main@%tmp102.i_0_0| Int) (|main@%tmp24.i_0| Int) (|main@%tmp98.i_0_0| Int) (|.loc.67| Bool) (|.y.51| Int) (|.y.45| Int) (|.y.48| (Array Int Int)) (|.y.49| Int) (|.y.50| (Array Int Int)) (|.y.52| Int) (|.loc.68| Bool) (|.y.56| (Array Int Int)) (|.y.60| Int) (|.y.61| Int) (|.y.64| (Array Int Int)) (|.loc.69| Bool) (|.y.62| Int) (|.y.65| (Array Int Int)) (|.y.66| (Array Int Int)) (|.y.63| Int) (|.y.55| Int) (|.y.46| Int) (|.y.53| Int) (|.y.54| Int) (|.y.47| Int) (|.y.59| (Array Int Int)) (|.y.58| (Array Int Int)) (|.y.57| (Array Int Int)) (|.xtv.1| Int) (|.xtv.2| Int) (|.xtv.3| Int)) (=> (state |main@%tmp8.i_0_11| |.y.26| |.y.27| |main@%shadow.mem1.0_0_11| |main@%tmp18.i_0_11| |main@%shadow.mem5.0_0_3| |main@%x.0.i_0_1| |main@%tmp2.i_0_11| |.y.28| |.y.29| |.y.30| |.y.31| |.y.32| |.y.33| |.y.34| |.y.35| |.y.36| |.y.37| |.y.38| |.y.39| |.y.40| |.y.41| |.loc.42| |.loc.43| |.loc.44| |main@%tmp102.i_0_0| |main@%tmp24.i_0| |main@%tmp98.i_0_0|) (not (and .loc.44 (and .loc.42 .loc.43))))))
(check-sat)
